# Objective value = 9.9536717171717191e+03
Scrap1 75
Scrap2 9.0909090909090921e+01
Scrap3 6.7228282828282829e+02
Scrap4 1.3730808080808069e+02
Ni 1.3590909090909090e+01
Cr 0
Mo 1.0909090909090978e+01
